gurobi
{
  "schema_version": "1.0",
  "generated_at": "2026-04-01T13:40:15.654949+00:00",
  "runs": [
    {
      "mode": "gurobi-true-ground-truth",
      "scenario_name": "rotation_micro_25",
      "n_farms": 5,
      "n_foods": 6,
      "n_vars": 90,
      "n_periods": 3,
      "sampler": "classical",
      "backend": "Gurobi",
      "timeout_s": 200.0,
      "status": "timeout",
      "objective_miqp": 5.8785239633341675,
      "objective_model": 50.72568119424998,
      "feasible": true,
      "timestamp_utc": "2026-04-01T13:05:45.964077+00:00",
      "hostname": "MSI",
      "area_constant": 1.0,
      "mip_gap": 12.184589363238976,
      "seed": 42,
      "git_commit": "6816f8f",
      "timing": {
        "total_wall_time": 200.48075580596924,
        "model_build_time": 0.008137941360473633,
        "solve_time": 200.46835708618164,
        "postprocess_time": 0.0,
        "area_normalization_time": 0.0,
        "miqp_recompute_time": 0.001068115234375
      },
      "constraint_violations": {
        "one_hot_violations": 0,
        "rotation_violations": 0,
        "total_violations": 0,
        "details": []
      }
    },
    {
      "mode": "gurobi-true-ground-truth",
      "scenario_name": "rotation_small_50",
      "n_farms": 10,
      "n_foods": 6,
      "n_vars": 180,
      "n_periods": 3,
      "sampler": "classical",
      "backend": "Gurobi",
      "timeout_s": 200.0,
      "status": "timeout",
      "objective_miqp": 8.088407437660015,
      "objective_model": 97.89544814290167,
      "feasible": true,
      "timestamp_utc": "2026-04-01T13:09:07.909261+00:00",
      "hostname": "MSI",
      "area_constant": 1.0,
      "mip_gap": 69.29648097450195,
      "seed": 42,
      "git_commit": "6816f8f",
      "timing": {
        "total_wall_time": 200.41088271141052,
        "model_build_time": 0.00937962532043457,
        "solve_time": 200.39949440956116,
        "postprocess_time": 0.0,
        "area_normalization_time": 0.0,
        "miqp_recompute_time": 0.0
      },
      "constraint_violations": {
        "one_hot_violations": 0,
        "rotation_violations": 0,
        "total_violations": 0,
        "details": []
      }
    },
    {
      "mode": "gurobi-true-ground-truth",
      "scenario_name": "rotation_15farms_6foods",
      "n_farms": 15,
      "n_foods": 6,
      "n_vars": 270,
      "n_periods": 3,
      "sampler": "classical",
      "backend": "Gurobi",
      "timeout_s": 200.0,
      "status": "timeout",
      "objective_miqp": 10.354204344299063,
      "objective_model": 145.1770419561798,
      "feasible": true,
      "timestamp_utc": "2026-04-01T13:12:28.637457+00:00",
      "hostname": "MSI",
      "area_constant": 1.0,
      "mip_gap": 87.86520246071319,
      "seed": 42,
      "git_commit": "6816f8f",
      "timing": {
        "total_wall_time": 200.39882731437683,
        "model_build_time": 0.00864100456237793,
        "solve_time": 200.38922238349915,
        "postprocess_time": 0.0,
        "area_normalization_time": 0.0,
        "miqp_recompute_time": 0.0
      },
      "constraint_violations": {
        "one_hot_violations": 0,
        "rotation_violations": 0,
        "total_violations": 0,
        "details": []
      }
    },
    {
      "mode": "gurobi-true-ground-truth",
      "scenario_name": "rotation_medium_100",
      "n_farms": 20,
      "n_foods": 6,
      "n_vars": 360,
      "n_periods": 3,
      "sampler": "classical",
      "backend": "Gurobi",
      "timeout_s": 200.0,
      "status": "timeout",
      "objective_miqp": 12.602153524321821,
      "objective_model": 192.4229403162252,
      "feasible": true,
      "timestamp_utc": "2026-04-01T13:15:49.460588+00:00",
      "hostname": "MSI",
      "area_constant": 1.0,
      "mip_gap": 93.03236255902651,
      "seed": 42,
      "git_commit": "6816f8f",
      "timing": {
        "total_wall_time": 200.24306201934814,
        "model_build_time": 0.010825634002685547,
        "solve_time": 200.22878623008728,
        "postprocess_time": 0.0,
        "area_normalization_time": 0.0,
        "miqp_recompute_time": 0.0020084381103515625
      },
      "constraint_violations": {
        "one_hot_violations": 0,
        "rotation_violations": 0,
        "total_violations": 0,
        "details": []
      }
    },
    {
      "mode": "gurobi-true-ground-truth",
      "scenario_name": "rotation_25farms_6foods",
      "n_farms": 25,
      "n_foods": 6,
      "n_vars": 450,
      "n_periods": 3,
      "sampler": "classical",
      "backend": "Gurobi",
      "timeout_s": 200.0,
      "status": "timeout",
      "objective_miqp": 14.838480615501222,
      "objective_model": 239.6545592331979,
      "feasible": true,
      "timestamp_utc": "2026-04-01T13:19:09.851277+00:00",
      "hostname": "MSI",
      "area_constant": 1.0,
      "mip_gap": 92.57359911133845,
      "seed": 42,
      "git_commit": "6816f8f",
      "timing": {
        "total_wall_time": 200.23890209197998,
        "model_build_time": 0.008510828018188477,
        "solve_time": 200.2266731262207,
        "postprocess_time": 0.0,
        "area_normalization_time": 0.0,
        "miqp_recompute_time": 0.003718137741088867
      },
      "constraint_violations": {
        "one_hot_violations": 0,
        "rotation_violations": 0,
        "total_violations": 0,
        "details": []
      }
    },
    {
      "mode": "gurobi-true-ground-truth",
      "scenario_name": "rotation_50farms_6foods",
      "n_farms": 50,
      "n_foods": 6,
      "n_vars": 900,
      "n_periods": 3,
      "sampler": "classical",
      "backend": "Gurobi",
      "timeout_s": 200.0,
      "status": "timeout",
      "objective_miqp": 26.09983025463722,
      "objective_model": 475.92277614416327,
      "feasible": true,
      "timestamp_utc": "2026-04-01T13:22:30.263677+00:00",
      "hostname": "MSI",
      "area_constant": 1.0,
      "mip_gap": 97.8729697462114,
      "seed": 42,
      "git_commit": "6816f8f",
      "timing": {
        "total_wall_time": 200.2331781387329,
        "model_build_time": 0.03114032745361328,
        "solve_time": 200.19692993164062,
        "postprocess_time": 0.0,
        "area_normalization_time": 0.0,
        "miqp_recompute_time": 0.0030143260955810547
      },
      "constraint_violations": {
        "one_hot_violations": 0,
        "rotation_violations": 0,
        "total_violations": 0,
        "details": []
      }
    },
    {
      "mode": "gurobi-true-ground-truth",
      "scenario_name": "rotation_75farms_6foods",
      "n_farms": 75,
      "n_foods": 6,
      "n_vars": 1350,
      "n_periods": 3,
      "sampler": "classical",
      "backend": "Gurobi",
      "timeout_s": 200.0,
      "status": "timeout",
      "objective_miqp": 37.35027138776149,
      "objective_model": 712.1691760431067,
      "feasible": true,
      "timestamp_utc": "2026-04-01T13:25:50.687340+00:00",
      "hostname": "MSI",
      "area_constant": 1.0,
      "mip_gap": 98.75010595367783,
      "seed": 42,
      "git_commit": "6816f8f",
      "timing": {
        "total_wall_time": 200.25158643722534,
        "model_build_time": 0.013872385025024414,
        "solve_time": 200.22687315940857,
        "postprocess_time": 0.0,
        "area_normalization_time": 0.0,
        "miqp_recompute_time": 0.007124185562133789
      },
      "constraint_violations": {
        "one_hot_violations": 0,
        "rotation_violations": 0,
        "total_violations": 0,
        "details": []
      }
    },
    {
      "mode": "gurobi-true-ground-truth",
      "scenario_name": "rotation_100farms_6foods",
      "n_farms": 100,
      "n_foods": 6,
      "n_vars": 1800,
      "n_periods": 3,
      "sampler": "classical",
      "backend": "Gurobi",
      "timeout_s": 200.0,
      "status": "timeout",
      "objective_miqp": 48.5496566947296,
      "objective_model": 948.3448408608862,
      "feasible": true,
      "timestamp_utc": "2026-04-01T13:29:11.095684+00:00",
      "hostname": "MSI",
      "area_constant": 1.0,
      "mip_gap": 99.26803851427172,
      "seed": 42,
      "git_commit": "6816f8f",
      "timing": {
        "total_wall_time": 200.30130243301392,
        "model_build_time": 0.04117298126220703,
        "solve_time": 200.25254607200623,
        "postprocess_time": 0.0,
        "area_normalization_time": 0.0,
        "miqp_recompute_time": 0.0035719871520996094
      },
      "constraint_violations": {
        "one_hot_violations": 0,
        "rotation_violations": 0,
        "total_violations": 0,
        "details": []
      }
    },
    {
      "mode": "gurobi-true-ground-truth",
      "scenario_name": "rotation_large_200",
      "n_farms": 50,
      "n_foods": 6,
      "n_vars": 900,
      "n_periods": 3,
      "sampler": "classical",
      "backend": "Gurobi",
      "timeout_s": 200.0,
      "status": "timeout",
      "objective_miqp": 26.098109526645594,
      "objective_model": 475.92381705548706,
      "feasible": true,
      "timestamp_utc": "2026-04-01T13:32:31.620764+00:00",
      "hostname": "MSI",
      "area_constant": 1.0,
      "mip_gap": 97.87160072271696,
      "seed": 42,
      "git_commit": "6816f8f",
      "timing": {
        "total_wall_time": 200.20656847953796,
        "model_build_time": 0.01420903205871582,
        "solve_time": 200.18746256828308,
        "postprocess_time": 0.0,
        "area_normalization_time": 0.0,
        "miqp_recompute_time": 0.0028586387634277344
      },
      "constraint_violations": {
        "one_hot_violations": 0,
        "rotation_violations": 0,
        "total_violations": 0,
        "details": []
      }
    },
    {
      "mode": "gurobi-true-ground-truth",
      "scenario_name": "rotation_25farms_27foods",
      "n_farms": 25,
      "n_foods": 27,
      "n_vars": 2025,
      "n_periods": 3,
      "sampler": "classical",
      "backend": "Gurobi",
      "timeout_s": 200.0,
      "status": "timeout",
      "objective_miqp": 15.499668015661287,
      "objective_model": 240.50497425311517,
      "feasible": true,
      "timestamp_utc": "2026-04-01T13:35:52.602937+00:00",
      "hostname": "MSI",
      "area_constant": 1.0,
      "mip_gap": 1.1683257023468467,
      "seed": 42,
      "git_commit": "6816f8f",
      "timing": {
        "total_wall_time": 200.22939801216125,
        "model_build_time": 0.07360196113586426,
        "solve_time": 200.1495430469513,
        "postprocess_time": 0.0,
        "area_normalization_time": 0.0,
        "miqp_recompute_time": 0.003253459930419922
      },
      "constraint_violations": {
        "one_hot_violations": 0,
        "rotation_violations": 0,
        "total_violations": 0,
        "details": []
      }
    },
    {
      "mode": "gurobi-true-ground-truth",
      "scenario_name": "rotation_50farms_27foods",
      "n_farms": 50,
      "n_foods": 27,
      "n_vars": 4050,
      "n_periods": 3,
      "sampler": "classical",
      "backend": "Gurobi",
      "timeout_s": 200.0,
      "status": "optimal",
      "objective_miqp": 25.172848667621025,
      "objective_model": 474.97761479647767,
      "feasible": false,
      "timestamp_utc": "2026-04-01T13:39:12.987455+00:00",
      "hostname": "MSI",
      "area_constant": 1.0,
      "mip_gap": 0.0,
      "seed": 42,
      "git_commit": "6816f8f",
      "timing": {
        "total_wall_time": 6.035346508026123,
        "model_build_time": 0.09033536911010742,
        "solve_time": 5.929273843765259,
        "postprocess_time": 0.0,
        "area_normalization_time": 0.0,
        "miqp_recompute_time": 0.00603032112121582
      },
      "constraint_violations": {
        "one_hot_violations": 0,
        "rotation_violations": 1,
        "total_violations": 1,
        "details": [
          {
            "type": "rotation",
            "farm": "Farm6",
            "food": "Lamb",
            "periods": "t2 and t3",
            "message": "Same crop in consecutive periods"
          }
        ]
      }
    },
    {
      "mode": "gurobi-true-ground-truth",
      "scenario_name": "rotation_100farms_27foods",
      "n_farms": 100,
      "n_foods": 27,
      "n_vars": 8100,
      "n_periods": 3,
      "sampler": "classical",
      "backend": "Gurobi",
      "timeout_s": 200.0,
      "status": "optimal",
      "objective_miqp": 45.8147547349621,
      "objective_model": 945.5823088390289,
      "feasible": false,
      "timestamp_utc": "2026-04-01T13:39:19.112379+00:00",
      "hostname": "MSI",
      "area_constant": 1.0,
      "mip_gap": 0.0,
      "seed": 42,
      "git_commit": "6816f8f",
      "timing": {
        "total_wall_time": 11.867441415786743,
        "model_build_time": 0.14621853828430176,
        "solve_time": 11.695885419845581,
        "postprocess_time": 0.0,
        "area_normalization_time": 0.0,
        "miqp_recompute_time": 0.008771181106567383
      },
      "constraint_violations": {
        "one_hot_violations": 0,
        "rotation_violations": 11,
        "total_violations": 11,
        "details": [
          {
            "type": "rotation",
            "farm": "Farm2",
            "food": "Apple",
            "periods": "t1 and t2",
            "message": "Same crop in consecutive periods"
          },
          {
            "type": "rotation",
            "farm": "Farm3",
            "food": "Peanuts",
            "periods": "t2 and t3",
            "message": "Same crop in consecutive periods"
          },
          {
            "type": "rotation",
            "farm": "Farm17",
            "food": "Tomatoes",
            "periods": "t1 and t2",
            "message": "Same crop in consecutive periods"
          },
          {
            "type": "rotation",
            "farm": "Farm25",
            "food": "Tomatoes",
            "periods": "t2 and t3",
            "message": "Same crop in consecutive periods"
          },
          {
            "type": "rotation",
            "farm": "Farm31",
            "food": "Pork",
            "periods": "t1 and t2",
            "message": "Same crop in consecutive periods"
          },
          {
            "type": "rotation",
            "farm": "Farm38",
            "food": "Lamb",
            "periods": "t1 and t2",
            "message": "Same crop in consecutive periods"
          },
          {
            "type": "rotation",
            "farm": "Farm40",
            "food": "Mango",
            "periods": "t2 and t3",
            "message": "Same crop in consecutive periods"
          },
          {
            "type": "rotation",
            "farm": "Farm52",
            "food": "Spinach",
            "periods": "t1 and t2",
            "message": "Same crop in consecutive periods"
          },
          {
            "type": "rotation",
            "farm": "Farm78",
            "food": "Corn",
            "periods": "t2 and t3",
            "message": "Same crop in consecutive periods"
          },
          {
            "type": "rotation",
            "farm": "Farm85",
            "food": "Pumpkin",
            "periods": "t2 and t3",
            "message": "Same crop in consecutive periods"
          }
        ]
      }
    },
    {
      "mode": "gurobi-true-ground-truth",
      "scenario_name": "rotation_200farms_27foods",
      "n_farms": 200,
      "n_foods": 27,
      "n_vars": 16200,
      "n_periods": 3,
      "sampler": "classical",
      "backend": "Gurobi",
      "timeout_s": 200.0,
      "status": "optimal",
      "objective_miqp": 88.83041169275694,
      "objective_model": 1888.5912210697818,
      "feasible": false,
      "timestamp_utc": "2026-04-01T13:39:31.087449+00:00",
      "hostname": "MSI",
      "area_constant": 1.0,
      "mip_gap": 0.0,
      "seed": 42,
      "git_commit": "6816f8f",
      "timing": {
        "total_wall_time": 44.42576503753662,
        "model_build_time": 0.283233642578125,
        "solve_time": 44.09812927246094,
        "postprocess_time": 0.0,
        "area_normalization_time": 0.0,
        "miqp_recompute_time": 0.02340078353881836
      },
      "constraint_violations": {
        "one_hot_violations": 0,
        "rotation_violations": 22,
        "total_violations": 22,
        "details": [
          {
            "type": "rotation",
            "farm": "Farm2",
            "food": "Apple",
            "periods": "t1 and t2",
            "message": "Same crop in consecutive periods"
          },
          {
            "type": "rotation",
            "farm": "Farm3",
            "food": "Peanuts",
            "periods": "t2 and t3",
            "message": "Same crop in consecutive periods"
          },
          {
            "type": "rotation",
            "farm": "Farm17",
            "food": "Tomatoes",
            "periods": "t1 and t2",
            "message": "Same crop in consecutive periods"
          },
          {
            "type": "rotation",
            "farm": "Farm25",
            "food": "Tomatoes",
            "periods": "t2 and t3",
            "message": "Same crop in consecutive periods"
          },
          {
            "type": "rotation",
            "farm": "Farm31",
            "food": "Pork",
            "periods": "t1 and t2",
            "message": "Same crop in consecutive periods"
          },
          {
            "type": "rotation",
            "farm": "Farm38",
            "food": "Lamb",
            "periods": "t1 and t2",
            "message": "Same crop in consecutive periods"
          },
          {
            "type": "rotation",
            "farm": "Farm40",
            "food": "Mango",
            "periods": "t2 and t3",
            "message": "Same crop in consecutive periods"
          },
          {
            "type": "rotation",
            "farm": "Farm52",
            "food": "Spinach",
            "periods": "t1 and t2",
            "message": "Same crop in consecutive periods"
          },
          {
            "type": "rotation",
            "farm": "Farm78",
            "food": "Corn",
            "periods": "t2 and t3",
            "message": "Same crop in consecutive periods"
          },
          {
            "type": "rotation",
            "farm": "Farm85",
            "food": "Pumpkin",
            "periods": "t2 and t3",
            "message": "Same crop in consecutive periods"
          }
        ]
      }
    }
  ]
}