gurobi.log

Gurobi 12.0.3 (win64, gurobi_cl) logging started Sat Oct 25 16:57:44 2025

Set parameter Username
Set parameter LicenseID to value 2727667
Set parameter LogFile to value "gurobi.log"
Using license file C:\Users\Edoardo\gurobi.lic
Academic license - for non-commercial use only - expires 2026-10-25
